Route #1: 36 5 60 20 6 56 61 16 52 15 25 49 23 37
Route #2: 8 31 32 42 22 47 63 50 44 2 27 53
Route #3: 11 30 38 12 14 48 57 51 29 62 19 33 4 34 17
Route #4: 26 64 59 7 46 54 45
Route #5: 1 24 43 21 3 58 40
Route #6: 18 35 55 9 39 41 28
Route #7: 10 13
Route #8: 
Route #9: 
cost 1503.097587465691
